
  17    0


   0   8 2 3 4 5 6 7 8 16 
   9   2 15 10 
   6   2 10 9 
   8   2 14 9 
   9   1 13 
   8   1 12 
  10   1 11 
   8   1 9 
   1   1 17
   1   1 17
   1   1 17
   2   1 17
   5   1 17
   4   1 17
   6   1 17
   3   1 17
   0   0 
